# Solution for model micodag
# Objective value = 1.6269893476786624e+01
s_0_1 0
s_1_0 0
s_0_2 0
s_2_0 0.209740415838934
s_0_3 0
s_3_0 2.9570439448258057e-01
s_1_8 0
s_8_1 1.2023263846332810e+00
s_3_4 0
s_4_3 1.7931294423194366e-01
s_3_5 0
s_5_3 0
s_3_6 0
s_6_3 0
s_3_7 0
s_7_3 1.4964134445154720e-01
s_3_9 0
s_9_3 0
s_3_10 0
s_10_3 4.1955881427087860e-01
s_3_13 0
s_13_3 6.0370258868258642e-01
s_4_5 0
s_5_4 0.178858410654132
s_4_6 0
s_6_4 6.1611862476441726e-01
s_4_7 4.9888924161788042e+00
s_7_4 0
s_5_10 0
s_10_5 2.4590812669418050e-01
s_6_7 0
s_7_6 0
s_6_9 0
s_9_6 0
s_6_10 0
s_10_6 0
s_6_13 0
s_13_6 0.638091385215156
s_7_9 0
s_9_7 0
s_7_10 0
s_10_7 0
s_7_13 0
s_13_7 4.9888924161788042e+00
s_8_9 0
s_9_8 6.9835935971410468e-01
s_9_10 0
s_10_9 0
s_9_13 0
s_13_9 3.6043466686240411e-01
s_10_11 0
s_11_10 4.9888924161788042e+00
s_10_12 0
s_12_10 4.9888924161788042e+00
s_10_13 0
s_13_10 4.9888924161788042e+00
s_0_0 6.4086433979401658e-01
s_1_1 9.4487929442778640e-01
s_2_2 0.631027848958019
s_3_3 6.5384639111372689e-01
s_4_4 2.4573646629669348e+00
s_5_5 6.9707278359562963e-01
s_6_6 1.0267737124285112e+00
s_7_7 4.9888924161788042e+00
s_8_8 2.0359541182710670e+00
s_9_9 1.0254332981004737e+00
s_10_10 4.9888924161788042e+00
s_11_11 6.8290980036202420e-01
s_12_12 9.6197717416385409e-01
s_13_13 9.5332731340724486e-01
Gamma_0_0 0.800540030100942
Gamma_0_1 0
Gamma_0_2 0
Gamma_0_3 0
Gamma_0_4 0
Gamma_0_5 0
Gamma_0_6 0
Gamma_0_7 0
Gamma_0_8 0
Gamma_0_9 0
Gamma_0_10 0
Gamma_0_11 0
Gamma_0_12 0
Gamma_0_13 0
Gamma_1_0 0
Gamma_1_1 9.7204901853136350e-01
Gamma_1_2 0
Gamma_1_3 0
Gamma_1_4 0
Gamma_1_5 0
Gamma_1_6 0
Gamma_1_7 0
Gamma_1_8 0
Gamma_1_9 0
Gamma_1_10 0
Gamma_1_11 0
Gamma_1_12 0
Gamma_1_13 0
Gamma_2_0 -4.5797425237554029e-01
Gamma_2_1 0
Gamma_2_2 0.794372613423965
Gamma_2_3 0
Gamma_2_4 0
Gamma_2_5 0
Gamma_2_6 0
Gamma_2_7 0
Gamma_2_8 0
Gamma_2_9 0
Gamma_2_10 0
Gamma_2_11 0
Gamma_2_12 0
Gamma_2_13 0
Gamma_3_0 5.4378708561585187e-01
Gamma_3_1 0
Gamma_3_2 0
Gamma_3_3 8.0860768677630546e-01
Gamma_3_4 0
Gamma_3_5 0
Gamma_3_6 0
Gamma_3_7 0
Gamma_3_8 0
Gamma_3_9 0
Gamma_3_10 0
Gamma_3_11 0
Gamma_3_12 0
Gamma_3_13 0
Gamma_4_0 0
Gamma_4_1 0
Gamma_4_2 0
Gamma_4_3 -4.2345359159174067e-01
Gamma_4_4 1.5675983742550050e+00
Gamma_4_5 0
Gamma_4_6 0
Gamma_4_7 -1.1317714726129591e+00
Gamma_4_8 0
Gamma_4_9 0
Gamma_4_10 0
Gamma_4_11 0
Gamma_4_12 0
Gamma_4_13 0
Gamma_5_0 0
Gamma_5_1 0
Gamma_5_2 0
Gamma_5_3 0
Gamma_5_4 -4.2291655282588941e-01
Gamma_5_5 8.3490884747715466e-01
Gamma_5_6 0
Gamma_5_7 0
Gamma_5_8 0
Gamma_5_9 0
Gamma_5_10 0
Gamma_5_11 0
Gamma_5_12 0
Gamma_5_13 0
Gamma_6_0 0
Gamma_6_1 0
Gamma_6_2 0
Gamma_6_3 0
Gamma_6_4 7.8493224214859370e-01
Gamma_6_5 0
Gamma_6_6 1.0132984320665419e+00
Gamma_6_7 0
Gamma_6_8 0
Gamma_6_9 0
Gamma_6_10 0
Gamma_6_11 0
Gamma_6_12 0
Gamma_6_13 0
Gamma_7_0 0
Gamma_7_1 0
Gamma_7_2 0
Gamma_7_3 -3.8683503519142065e-01
Gamma_7_4 0
Gamma_7_5 0
Gamma_7_6 0
Gamma_7_7 9.1142285375316390e-01
Gamma_7_8 0
Gamma_7_9 0
Gamma_7_10 0
Gamma_7_11 0
Gamma_7_12 0
Gamma_7_13 0
Gamma_8_0 0
Gamma_8_1 1.0965064453222704e+00
Gamma_8_2 0
Gamma_8_3 0
Gamma_8_4 0
Gamma_8_5 0
Gamma_8_6 0
Gamma_8_7 0
Gamma_8_8 1.4268686408604918e+00
Gamma_8_9 0
Gamma_8_10 0
Gamma_8_11 0
Gamma_8_12 0
Gamma_8_13 0
Gamma_9_0 0
Gamma_9_1 0
Gamma_9_2 0
Gamma_9_3 0
Gamma_9_4 0
Gamma_9_5 0
Gamma_9_6 0
Gamma_9_7 0
Gamma_9_8 8.3567898125662210e-01
Gamma_9_9 1.0126368046345513e+00
Gamma_9_10 0
Gamma_9_11 0
Gamma_9_12 0
Gamma_9_13 0
Gamma_10_0 0
Gamma_10_1 0
Gamma_10_2 0
Gamma_10_3 -6.4773359822606058e-01
Gamma_10_4 0
Gamma_10_5 -4.9589124482509361e-01
Gamma_10_6 0
Gamma_10_7 0
Gamma_10_8 0
Gamma_10_9 0
Gamma_10_10 8.2179868313552185e-01
Gamma_10_11 0
Gamma_10_12 0
Gamma_10_13 0
Gamma_11_0 0
Gamma_11_1 0
Gamma_11_2 0
Gamma_11_3 0
Gamma_11_4 0
Gamma_11_5 0
Gamma_11_6 0
Gamma_11_7 0
Gamma_11_8 0
Gamma_11_9 0
Gamma_11_10 -5.0114865919428442e-01
Gamma_11_11 8.2638356733542606e-01
Gamma_11_12 0
Gamma_11_13 0
Gamma_12_0 0
Gamma_12_1 0
Gamma_12_2 0
Gamma_12_3 0
Gamma_12_4 0
Gamma_12_5 0
Gamma_12_6 0
Gamma_12_7 0
Gamma_12_8 0
Gamma_12_9 0
Gamma_12_10 -8.3151053782688078e-01
Gamma_12_11 0
Gamma_12_12 9.8080435060406179e-01
Gamma_12_13 0
Gamma_13_0 0
Gamma_13_1 0
Gamma_13_2 0
Gamma_13_3 7.7698300411436771e-01
Gamma_13_4 0
Gamma_13_5 0
Gamma_13_6 -7.9880622507286270e-01
Gamma_13_7 8.6654568084425887e-01
Gamma_13_8 0
Gamma_13_9 -6.0036211311374810e-01
Gamma_13_10 -8.5188082842755419e-01
Gamma_13_11 0
Gamma_13_12 0
Gamma_13_13 0.976384818300267
psi_0 6
psi_1 3
psi_2 0
psi_3 5
psi_4 3
psi_5 2
psi_6 1
psi_7 4
psi_8 2
psi_9 1
psi_10 1
psi_11 0
psi_12 0
psi_13 0
g_0_0 0
g_0_1 0
g_0_2 0
g_0_3 0
g_0_4 0
g_0_5 0
g_0_6 0
g_0_7 0
g_0_8 0
g_0_9 0
g_0_10 0
g_0_11 0
g_0_12 0
g_0_13 0
g_1_0 0
g_1_1 0
g_1_2 0
g_1_3 0
g_1_4 0
g_1_5 0
g_1_6 0
g_1_7 0
g_1_8 0
g_1_9 0
g_1_10 0
g_1_11 0
g_1_12 0
g_1_13 0
g_2_0 1
g_2_1 0
g_2_2 0
g_2_3 0
g_2_4 0
g_2_5 0
g_2_6 0
g_2_7 0
g_2_8 0
g_2_9 0
g_2_10 0
g_2_11 0
g_2_12 0
g_2_13 0
g_3_0 1
g_3_1 0
g_3_2 0
g_3_3 0
g_3_4 0
g_3_5 0
g_3_6 0
g_3_7 0
g_3_8 0
g_3_9 0
g_3_10 0
g_3_11 0
g_3_12 0
g_3_13 0
g_4_0 0
g_4_1 0
g_4_2 0
g_4_3 1
g_4_4 0
g_4_5 0
g_4_6 0
g_4_7 1
g_4_8 0
g_4_9 0
g_4_10 0
g_4_11 0
g_4_12 0
g_4_13 0
g_5_0 0
g_5_1 0
g_5_2 0
g_5_3 0
g_5_4 1
g_5_5 0
g_5_6 0
g_5_7 0
g_5_8 0
g_5_9 0
g_5_10 0
g_5_11 0
g_5_12 0
g_5_13 0
g_6_0 0
g_6_1 0
g_6_2 0
g_6_3 0
g_6_4 1
g_6_5 0
g_6_6 0
g_6_7 0
g_6_8 0
g_6_9 0
g_6_10 0
g_6_11 0
g_6_12 0
g_6_13 0
g_7_0 0
g_7_1 0
g_7_2 0
g_7_3 1
g_7_4 0
g_7_5 0
g_7_6 0
g_7_7 0
g_7_8 0
g_7_9 0
g_7_10 0
g_7_11 0
g_7_12 0
g_7_13 0
g_8_0 0
g_8_1 1
g_8_2 0
g_8_3 0
g_8_4 0
g_8_5 0
g_8_6 0
g_8_7 0
g_8_8 0
g_8_9 0
g_8_10 0
g_8_11 0
g_8_12 0
g_8_13 0
g_9_0 0
g_9_1 0
g_9_2 0
g_9_3 0
g_9_4 0
g_9_5 0
g_9_6 0
g_9_7 0
g_9_8 1
g_9_9 0
g_9_10 0
g_9_11 0
g_9_12 0
g_9_13 0
g_10_0 0
g_10_1 0
g_10_2 0
g_10_3 1
g_10_4 0
g_10_5 1
g_10_6 0
g_10_7 0
g_10_8 0
g_10_9 0
g_10_10 0
g_10_11 0
g_10_12 0
g_10_13 0
g_11_0 0
g_11_1 0
g_11_2 0
g_11_3 0
g_11_4 0
g_11_5 0
g_11_6 0
g_11_7 0
g_11_8 0
g_11_9 0
g_11_10 1
g_11_11 0
g_11_12 0
g_11_13 0
g_12_0 0
g_12_1 0
g_12_2 0
g_12_3 0
g_12_4 0
g_12_5 0
g_12_6 0
g_12_7 0
g_12_8 0
g_12_9 0
g_12_10 1
g_12_11 0
g_12_12 0
g_12_13 0
g_13_0 0
g_13_1 0
g_13_2 0
g_13_3 1
g_13_4 0
g_13_5 0
g_13_6 1
g_13_7 1
g_13_8 0
g_13_9 1
g_13_10 1
g_13_11 0
g_13_12 0
g_13_13 0
T_0 4.4493748284689616e-01
T_1 5.6698090410904456e-02
T_2 4.6040528277454484e-01
T_3 4.2488283108551173e-01
T_4 -8.9908950050214287e-01
T_5 3.6086544957639433e-01
T_6 -2.6421568234567872e-02
T_7 1.8549665005973281e-01
T_8 -7.1096456320402979e-01
T_9 -2.5115253119395220e-02
T_10 3.9251964989780674e-01
T_11 3.8139249202416181e-01
T_12 3.8764556078334067e-02
T_13 0.0477969784640635
